NAME: instance_1360
TYPE: TSP
DIMENSION: 20
EDGE_WEIGHT_TYPE: EUC_2D
NODE_COORD_SECTION
0 19.80 82.15
1 97.83 7.38
2 34.86 85.86
3 94.35 26.44
4 10.88 83.94
5 52.43 51.60
6 85.76 59.40
7 22.42 39.03
8 77.06 26.86
9 72.87 96.97
10 96.93 83.84
11 31.63 22.83
12 29.03 33.41
13 75.40 52.51
14 23.16 81.95
15 96.20 65.78
16 88.92 38.37
17 43.19 27.94
18 90.34 63.99
19 15.08 78.50
EOF
